%%%%%%%%%%%%%%%%%%%%%%%%%%%%%%%%%%%%%%%%%%%%%%%%%%%%%%%%%%%%%%%%%%%%%%%%%%%%%
%% Une instance du modele des conteneurs
%% Auteur: Michael Morin

HEIGHT = 5;
WIDTH = 6;

VoidNodes = { 1, 4, 10, 22, 26, 29 }

%% Fin du fichier
%%%%%%%%%%%%%%%%%%%%%%%%%%%%%%%%%%%%%%%%%%%%%%%%%%%%%%%%%%%%%%%%%%%%%%%%%%%%%